NAME : rat99.tsp
TYPE : TOUR
DIMENSION : 99
TOUR_LENGTH : 1304.8547611632353
TOUR_SECTION
1
2
3
12
11
10
20
19
28
37
29
30
31
32
41
40
39
48
38
47
46
55
56
57
58
59
68
67
66
65
64
74
73
82
83
91
92
93
94
95
86
87
88
79
80
71
70
69
78
77
76
85
84
75
96
97
98
99
90
89
81
72
63
62
61
60
49
50
51
52
53
54
45
44
34
43
42
33
35
36
27
26
25
24
23
22
21
13
14
15
16
17
18
9
8
7
6
5
4
-1
